c A SAT instance generated from a 7-CNF formula that had 10 clauses and 500 variables
p cnf 500 10
233 273 -18 -141 187 -40 301 0
-419 -379 -255 -455 196 49 -439 0
354 467 -342 -265 -387 -343 -386 0
187 473 -309 84 -137 380 -328 0
278 -30 -307 -258 -497 -301 370 0
470 -139 344 -422 -409 -343 -62 0
-386 454 -265 69 175 -411 350 0
370 -488 -115 16 -34 -12 -372 0
115 -186 137 -83 -381 -116 -160 0
-317 208 301 -77 384 -53 -226 0
